letting initialStacks = [14, 30, 9, 39, 28, 1, 4, 31, 19, 22, 45, 47, 27, 16, 51, 11, 15, 18, 44, 20, 32, 46, 34, 35, 3, 48, 37, 7, 10, 24, 41, 6, 13, 33, 23, 8, 2, 29, 42, 25, 5, 36, 38, 21, 49, 50, 43, 40, 17, 12, 26]
